certificates/rado_a5_c174_N34.cnf
c Rad2 upper bound instance: x1 + 5*x2 - x3 = 174, interval [1,34]
p cnf 34 210
1 5 34 0
-1 -5 -34 0
2 6 34 0
-2 -6 -34 0
3 7 34 0
-3 -7 -34 0
4 8 34 0
-4 -8 -34 0
5 9 34 0
-5 -9 -34 0
1 10 33 0
-1 -10 -33 0
6 10 34 0
-6 -10 -34 0
2 11 33 0
-2 -11 -33 0
7 11 34 0
-7 -11 -34 0
3 12 33 0
-3 -12 -33 0
8 12 34 0
-8 -12 -34 0
4 13 33 0
-4 -13 -33 0
9 13 34 0
-9 -13 -34 0
5 14 33 0
-5 -14 -33 0
10 14 34 0
-10 -14 -34 0
1 15 32 0
-1 -15 -32 0
6 15 33 0
-6 -15 -33 0
11 15 34 0
-11 -15 -34 0
2 16 32 0
-2 -16 -32 0
7 16 33 0
-7 -16 -33 0
12 16 34 0
-12 -16 -34 0
3 17 32 0
-3 -17 -32 0
8 17 33 0
-8 -17 -33 0
13 17 34 0
-13 -17 -34 0
4 18 32 0
-4 -18 -32 0
9 18 33 0
-9 -18 -33 0
14 18 34 0
-14 -18 -34 0
5 19 32 0
-5 -19 -32 0
10 19 33 0
-10 -19 -33 0
15 19 34 0
-15 -19 -34 0
1 20 31 0
-1 -20 -31 0
6 20 32 0
-6 -20 -32 0
11 20 33 0
-11 -20 -33 0
16 20 34 0
-16 -20 -34 0
2 21 31 0
-2 -21 -31 0
7 21 32 0
-7 -21 -32 0
12 21 33 0
-12 -21 -33 0
17 21 34 0
-17 -21 -34 0
3 22 31 0
-3 -22 -31 0
8 22 32 0
-8 -22 -32 0
13 22 33 0
-13 -22 -33 0
18 22 34 0
-18 -22 -34 0
4 23 31 0
-4 -23 -31 0
9 23 32 0
-9 -23 -32 0
14 23 33 0
-14 -23 -33 0
19 23 34 0
-19 -23 -34 0
5 24 31 0
-5 -24 -31 0
10 24 32 0
-10 -24 -32 0
15 24 33 0
-15 -24 -33 0
20 24 34 0
-20 -24 -34 0
1 25 30 0
-1 -25 -30 0
6 25 31 0
-6 -25 -31 0
11 25 32 0
-11 -25 -32 0
16 25 33 0
-16 -25 -33 0
21 25 34 0
-21 -25 -34 0
2 26 30 0
-2 -26 -30 0
7 26 31 0
-7 -26 -31 0
12 26 32 0
-12 -26 -32 0
17 26 33 0
-17 -26 -33 0
22 26 34 0
-22 -26 -34 0
3 27 30 0
-3 -27 -30 0
8 27 31 0
-8 -27 -31 0
13 27 32 0
-13 -27 -32 0
18 27 33 0
-18 -27 -33 0
23 27 34 0
-23 -27 -34 0
4 28 30 0
-4 -28 -30 0
9 28 31 0
-9 -28 -31 0
14 28 32 0
-14 -28 -32 0
19 28 33 0
-19 -28 -33 0
24 28 34 0
-24 -28 -34 0
5 29 30 0
-5 -29 -30 0
10 29 31 0
-10 -29 -31 0
15 29 32 0
-15 -29 -32 0
20 29 33 0
-20 -29 -33 0
25 29 34 0
-25 -29 -34 0
1 29 30 0
-1 -29 -30 0
6 30 0
-6 -30 0
11 30 31 0
-11 -30 -31 0
16 30 32 0
-16 -30 -32 0
21 30 33 0
-21 -30 -33 0
26 30 34 0
-26 -30 -34 0
2 29 31 0
-2 -29 -31 0
7 30 31 0
-7 -30 -31 0
12 31 0
-12 -31 0
17 31 32 0
-17 -31 -32 0
22 31 33 0
-22 -31 -33 0
27 31 34 0
-27 -31 -34 0
3 29 32 0
-3 -29 -32 0
8 30 32 0
-8 -30 -32 0
13 31 32 0
-13 -31 -32 0
18 32 0
-18 -32 0
23 32 33 0
-23 -32 -33 0
28 32 34 0
-28 -32 -34 0
4 29 33 0
-4 -29 -33 0
9 30 33 0
-9 -30 -33 0
14 31 33 0
-14 -31 -33 0
19 32 33 0
-19 -32 -33 0
24 33 0
-24 -33 0
29 33 34 0
-29 -33 -34 0
5 29 34 0
-5 -29 -34 0
10 30 34 0
-10 -30 -34 0
15 31 34 0
-15 -31 -34 0
20 32 34 0
-20 -32 -34 0
25 33 34 0
-25 -33 -34 0
30 34 0
-30 -34 0
