certificates/rado_a5_c174_N34.drat
29 -34 0
-34 0
30 0
-6 0
2 0
10 0
-26 0
22 0
-29 0
25 0
33 0
5 0
-1 0
-24 0
-11 0
-21 0
-9 0
-16 0
-19 0
-13 0
-31 0
-14 0
20 0
28 0
7 0
15 0
17 0
0
